p tdp 103 102
79 68
74 91
33 19
38 63
101 80
47 37
14 86
25 65
46 23
64 45
39 57
87 10
3 73
5 36
67 16
96 45
94 102
22 84
41 44
100 26
47 3
97 19
88 57
52 77
1 3
21 83
46 99
82 9
11 103
27 61
43 41
69 85
76 101
87 90
62 53
64 7
102 4
56 70
34 6
62 95
21 80
40 15
72 32
59 13
81 83
2 51
2 17
41 71
75 79
56 102
92 82
51 30
25 3
58 4
28 29
31 65
103 24
2 25
73 54
39 64
10 99
20 103
60 38
49 71
18 91
86 65
13 90
18 22
102 93
87 38
100 29
86 61
4 55
36 48
55 95
66 78
78 19
97 5
92 42
52 6
89 32
77 50
24 43
15 13
8 92
29 70
103 37
35 88
90 77
78 80
55 57
97 93
59 91
79 91
98 16
94 98
12 85
89 85
61 62
59 85
38 45
27 92
